
Gurobi 11.0.1 (win64) logging started Thu May 16 19:29:13 2024

Set parameter LogFile to value "output/solver_log28.txt"
Gurobi Optimizer version 11.0.1 build v11.0.1rc0 (win64 - Windows 11.0 (22631.2))

CPU model: 11th Gen Intel(R) Core(TM) i7-1165G7 @ 2.80GHz, instruction set [SSE2|AVX|AVX2|AVX512]
Thread count: 4 physical cores, 8 logical processors, using up to 8 threads

Optimize a model with 4557 rows, 1146 columns and 83227 nonzeros
Model fingerprint: 0x2f39f96c
Variable types: 568 continuous, 578 integer (578 binary)
Coefficient statistics:
  Matrix range     [4e-01, 1e+05]
  Objective range  [1e+00, 1e+02]
  Bounds range     [1e+00, 1e+00]
  RHS range        [1e-02, 1e+05]

User MIP start produced solution with objective 95699.1 (0.01s)
User MIP start produced solution with objective 95699.1 (0.01s)
Loaded user MIP start with objective 95699.1

Presolve removed 511 rows and 306 columns
Presolve time: 0.11s
Presolved: 4046 rows, 840 columns, 76413 nonzeros
Variable types: 516 continuous, 324 integer (322 binary)

Root relaxation: objective 9.587189e+04, 1030 iterations, 0.05 seconds (0.10 work units)

    Nodes    |    Current Node    |     Objective Bounds      |     Work
 Expl Unexpl |  Obj  Depth IntInf | Incumbent    BestBd   Gap | It/Node Time

     0     0 95871.8899    0    2 95699.1159 95871.8899  0.18%     -    0s
     0     0     cutoff    0      95699.1159 95699.1159  0.00%     -    0s

Explored 1 nodes (1254 simplex iterations) in 0.39 seconds (0.56 work units)
Thread count was 8 (of 8 available processors)

Solution count 2: 95699.1 95699.1 

Optimal solution found (tolerance 1.00e-04)
Best objective 9.569911588839e+04, best bound 9.569911588839e+04, gap 0.0000%
